asdf
1
10 0 0
0 10 0
0 0 10
He
13
cartesian
0 0 0
1 0 0
0.5000000000000001 0.8660254037844386 0.0
-0.4999999999999998 0.8660254037844388 0.0
-1.0 3.7370389047546735e-16 0.0
-0.5000000000000004 -0.8660254037844384 0.0
0.49999999999999944 -0.8660254037844389 0.0
0.5 0.28867513459481287 0.816496580927726
-0.4999999999999999 0.288675134594813 0.816496580927726
-2.657621732353405e-16 -0.5773502691896256 0.816496580927726
1.1102230246251565e-16 0.5773502691896258 -0.816496580927726
-0.5000000000000001 -0.2886751345948127 -0.816496580927726
0.4999999999999998 -0.2886751345948132 -0.816496580927726